c t mc
c file mc2022_track1_021.cnf
p cnf 586 1189
1 0
3 2 34 0
-34 -3 0
-34 -2 0
4 -34 35 0
-35 -4 0
-35 34 0
5 -35 36 0
-36 -5 0
-36 35 0
6 -36 37 0
-37 -6 0
-37 36 0
7 -37 38 0
-38 -7 0
-38 37 0
8 -38 39 0
-39 -8 0
-39 38 0
9 -39 40 0
-40 -9 0
-40 39 0
10 -40 41 0
-41 -10 0
-41 40 0
11 -41 42 0
-42 -11 0
-42 41 0
12 -42 43 0
-43 -12 0
-43 42 0
13 -43 44 0
-44 -13 0
-44 43 0
14 -44 45 0
-45 -14 0
-45 44 0
15 -45 46 0
-46 -15 0
-46 45 0
16 -46 47 0
-47 -16 0
-47 46 0
17 -47 48 0
-48 -17 0
-48 47 0
18 -48 49 0
-49 -18 0
-49 48 0
19 -49 50 0
-50 -19 0
-50 49 0
20 -50 51 0
-51 -20 0
-51 50 0
21 -51 52 0
-52 -21 0
-52 51 0
22 -52 53 0
-53 -22 0
-53 52 0
23 -53 54 0
-54 -23 0
-54 53 0
24 -54 55 0
-55 -24 0
-55 54 0
25 -55 56 0
-56 -25 0
-56 55 0
26 -56 57 0
-57 -26 0
-57 56 0
27 -57 58 0
-58 -27 0
-58 57 0
28 -58 59 0
-59 -28 0
-59 58 0
29 -59 60 0
-60 -29 0
-60 59 0
30 -60 61 0
-61 -30 0
-61 60 0
31 -61 62 0
-62 -31 0
-62 61 0
32 -62 63 0
-63 -32 0
-63 62 0
33 -63 64 0
-64 -33 0
-64 63 0
-64 0
-94 -93 97 0
-97 94 0
-97 93 0
-92 -97 98 0
-98 92 0
-98 97 0
91 98 99 0
-99 -91 0
-99 -98 0
90 -99 100 0
-100 -90 0
-100 99 0
-89 100 101 0
-101 89 0
-101 -100 0
-88 -101 102 0
-102 88 0
-102 101 0
-87 -102 103 0
-103 87 0
-103 102 0
-86 -103 104 0
-104 86 0
-104 103 0
-85 -104 105 0
-105 85 0
-105 104 0
-84 -105 106 0
-106 84 0
-106 105 0
-83 -106 107 0
-107 83 0
-107 106 0
-82 -107 108 0
-108 82 0
-108 107 0
-81 -108 109 0
-109 81 0
-109 108 0
-80 -109 110 0
-110 80 0
-110 109 0
-79 -110 111 0
-111 79 0
-111 110 0
-78 -111 112 0
-112 78 0
-112 111 0
-77 -112 113 0
-113 77 0
-113 112 0
-76 -113 114 0
-114 76 0
-114 113 0
-75 -114 115 0
-115 75 0
-115 114 0
-74 -115 116 0
-116 74 0
-116 115 0
-73 -116 117 0
-117 73 0
-117 116 0
-72 -117 118 0
-118 72 0
-118 117 0
-71 -118 119 0
-119 71 0
-119 118 0
-70 -119 120 0
-120 70 0
-120 119 0
-69 -120 121 0
-121 69 0
-121 120 0
-68 -121 122 0
-122 68 0
-122 121 0
-67 -122 123 0
-123 67 0
-123 122 0
-66 -123 124 0
-124 66 0
-124 123 0
-125 -124 -65 0
-125 124 65 0
125 124 -65 0
125 -124 65 0
66 123 126 0
-126 -66 0
-126 -123 0
124 126 127 0
-127 -124 0
-127 -126 0
67 122 128 0
-128 -67 0
-128 -122 0
123 128 129 0
-129 -123 0
-129 -128 0
68 121 130 0
-130 -68 0
-130 -121 0
122 130 131 0
-131 -122 0
-131 -130 0
69 120 132 0
-132 -69 0
-132 -120 0
121 132 133 0
-133 -121 0
-133 -132 0
70 119 134 0
-134 -70 0
-134 -119 0
120 134 135 0
-135 -120 0
-135 -134 0
71 118 136 0
-136 -71 0
-136 -118 0
119 136 137 0
-137 -119 0
-137 -136 0
72 117 138 0
-138 -72 0
-138 -117 0
118 138 139 0
-139 -118 0
-139 -138 0
73 116 140 0
-140 -73 0
-140 -116 0
117 140 141 0
-141 -117 0
-141 -140 0
74 115 142 0
-142 -74 0
-142 -115 0
116 142 143 0
-143 -116 0
-143 -142 0
75 114 144 0
-144 -75 0
-144 -114 0
115 144 145 0
-145 -115 0
-145 -144 0
76 113 146 0
-146 -76 0
-146 -113 0
114 146 147 0
-147 -114 0
-147 -146 0
77 112 148 0
-148 -77 0
-148 -112 0
113 148 149 0
-149 -113 0
-149 -148 0
78 111 150 0
-150 -78 0
-150 -111 0
112 150 151 0
-151 -112 0
-151 -150 0
79 110 152 0
-152 -79 0
-152 -110 0
111 152 153 0
-153 -111 0
-153 -152 0
80 109 154 0
-154 -80 0
-154 -109 0
110 154 155 0
-155 -110 0
-155 -154 0
81 108 156 0
-156 -81 0
-156 -108 0
109 156 157 0
-157 -109 0
-157 -156 0
82 107 158 0
-158 -82 0
-158 -107 0
108 158 159 0
-159 -108 0
-159 -158 0
83 106 160 0
-160 -83 0
-160 -106 0
107 160 161 0
-161 -107 0
-161 -160 0
84 105 162 0
-162 -84 0
-162 -105 0
106 162 163 0
-163 -106 0
-163 -162 0
85 104 164 0
-164 -85 0
-164 -104 0
105 164 165 0
-165 -105 0
-165 -164 0
86 103 166 0
-166 -86 0
-166 -103 0
104 166 167 0
-167 -104 0
-167 -166 0
87 102 168 0
-168 -87 0
-168 -102 0
103 168 169 0
-169 -103 0
-169 -168 0
88 101 170 0
-170 -88 0
-170 -101 0
102 170 171 0
-171 -102 0
-171 -170 0
89 -100 172 0
-172 -89 0
-172 100 0
101 172 173 0
-173 -101 0
-173 -172 0
-174 99 90 0
-174 -99 -90 0
174 -99 90 0
174 99 -90 0
-175 -98 91 0
-175 98 -91 0
175 98 91 0
175 -98 -91 0
92 97 176 0
-176 -92 0
-176 -97 0
98 176 177 0
-177 -98 0
-177 -176 0
94 93 178 0
-178 -94 0
-178 -93 0
97 178 179 0
-179 -97 0
-179 -178 0
-181 180 -125 0
-181 -180 125 0
181 -180 -125 0
181 180 125 0
-127 182 213 0
-213 127 0
-213 -182 0
127 -182 214 0
-214 -127 0
-214 182 0
-129 183 215 0
-215 129 0
-215 -183 0
129 -183 216 0
-216 -129 0
-216 183 0
-131 184 217 0
-217 131 0
-217 -184 0
131 -184 218 0
-218 -131 0
-218 184 0
-133 185 219 0
-219 133 0
-219 -185 0
133 -185 220 0
-220 -133 0
-220 185 0
-135 186 221 0
-221 135 0
-221 -186 0
135 -186 222 0
-222 -135 0
-222 186 0
-137 187 223 0
-223 137 0
-223 -187 0
137 -187 224 0
-224 -137 0
-224 187 0
-139 188 225 0
-225 139 0
-225 -188 0
139 -188 226 0
-226 -139 0
-226 188 0
-141 189 227 0
-227 141 0
-227 -189 0
141 -189 228 0
-228 -141 0
-228 189 0
-143 190 229 0
-229 143 0
-229 -190 0
143 -190 230 0
-230 -143 0
-230 190 0
-145 191 231 0
-231 145 0
-231 -191 0
145 -191 232 0
-232 -145 0
-232 191 0
-147 192 233 0
-233 147 0
-233 -192 0
147 -192 234 0
-234 -147 0
-234 192 0
-149 193 235 0
-235 149 0
-235 -193 0
149 -193 236 0
-236 -149 0
-236 193 0
-151 194 237 0
-237 151 0
-237 -194 0
151 -194 238 0
-238 -151 0
-238 194 0
-153 195 239 0
-239 153 0
-239 -195 0
153 -195 240 0
-240 -153 0
-240 195 0
-155 196 241 0
-241 155 0
-241 -196 0
155 -196 242 0
-242 -155 0
-242 196 0
-157 197 243 0
-243 157 0
-243 -197 0
157 -197 244 0
-244 -157 0
-244 197 0
-159 198 245 0
-245 159 0
-245 -198 0
159 -198 246 0
-246 -159 0
-246 198 0
-161 199 247 0
-247 161 0
-247 -199 0
161 -199 248 0
-248 -161 0
-248 199 0
-163 200 249 0
-249 163 0
-249 -200 0
163 -200 250 0
-250 -163 0
-250 200 0
-165 201 251 0
-251 165 0
-251 -201 0
165 -201 252 0
-252 -165 0
-252 201 0
-167 202 253 0
-253 167 0
-253 -202 0
167 -202 254 0
-254 -167 0
-254 202 0
-169 203 255 0
-255 169 0
-255 -203 0
169 -203 256 0
-256 -169 0
-256 203 0
-171 204 257 0
-257 171 0
-257 -204 0
171 -204 258 0
-258 -171 0
-258 204 0
-173 205 259 0
-259 173 0
-259 -205 0
173 -205 260 0
-260 -173 0
-260 205 0
-174 206 261 0
-261 174 0
-261 -206 0
174 -206 262 0
-262 -174 0
-262 206 0
-175 207 263 0
-263 175 0
-263 -207 0
175 -207 264 0
-264 -175 0
-264 207 0
-177 208 265 0
-265 177 0
-265 -208 0
177 -208 266 0
-266 -177 0
-266 208 0
-179 209 267 0
-267 179 0
-267 -209 0
179 -209 268 0
-268 -179 0
-268 209 0
94 210 269 0
-269 -94 0
-269 -210 0
-94 -210 270 0
-270 94 0
-270 210 0
-95 211 271 0
-271 95 0
-271 -211 0
95 -211 272 0
-272 -95 0
-272 211 0
-96 212 273 0
-273 96 0
-273 -212 0
-273 272 274 0
-274 273 0
-274 -272 0
274 271 275 0
-275 -274 0
-275 -271 0
275 270 276 0
-276 -275 0
-276 -270 0
276 269 277 0
-277 -276 0
-277 -269 0
277 268 278 0
-278 -277 0
-278 -268 0
278 267 279 0
-279 -278 0
-279 -267 0
279 266 280 0
-280 -279 0
-280 -266 0
280 265 281 0
-281 -280 0
-281 -265 0
281 264 282 0
-282 -281 0
-282 -264 0
282 263 283 0
-283 -282 0
-283 -263 0
283 262 284 0
-284 -283 0
-284 -262 0
284 261 285 0
-285 -284 0
-285 -261 0
285 260 286 0
-286 -285 0
-286 -260 0
286 259 287 0
-287 -286 0
-287 -259 0
287 258 288 0
-288 -287 0
-288 -258 0
288 257 289 0
-289 -288 0
-289 -257 0
289 256 290 0
-290 -289 0
-290 -256 0
290 255 291 0
-291 -290 0
-291 -255 0
291 254 292 0
-292 -291 0
-292 -254 0
292 253 293 0
-293 -292 0
-293 -253 0
293 252 294 0
-294 -293 0
-294 -252 0
294 251 295 0
-295 -294 0
-295 -251 0
295 250 296 0
-296 -295 0
-296 -250 0
296 249 297 0
-297 -296 0
-297 -249 0
297 248 298 0
-298 -297 0
-298 -248 0
298 247 299 0
-299 -298 0
-299 -247 0
299 246 300 0
-300 -299 0
-300 -246 0
300 245 301 0
-301 -300 0
-301 -245 0
301 244 302 0
-302 -301 0
-302 -244 0
302 243 303 0
-303 -302 0
-303 -243 0
303 242 304 0
-304 -303 0
-304 -242 0
304 241 305 0
-305 -304 0
-305 -241 0
305 240 306 0
-306 -305 0
-306 -240 0
306 239 307 0
-307 -306 0
-307 -239 0
307 238 308 0
-308 -307 0
-308 -238 0
308 237 309 0
-309 -308 0
-309 -237 0
309 236 310 0
-310 -309 0
-310 -236 0
310 235 311 0
-311 -310 0
-311 -235 0
311 234 312 0
-312 -311 0
-312 -234 0
312 233 313 0
-313 -312 0
-313 -233 0
313 232 314 0
-314 -313 0
-314 -232 0
314 231 315 0
-315 -314 0
-315 -231 0
315 230 316 0
-316 -315 0
-316 -230 0
316 229 317 0
-317 -316 0
-317 -229 0
317 228 318 0
-318 -317 0
-318 -228 0
318 227 319 0
-319 -318 0
-319 -227 0
319 226 320 0
-320 -319 0
-320 -226 0
320 225 321 0
-321 -320 0
-321 -225 0
321 224 322 0
-322 -321 0
-322 -224 0
322 223 323 0
-323 -322 0
-323 -223 0
323 222 324 0
-324 -323 0
-324 -222 0
324 221 325 0
-325 -324 0
-325 -221 0
325 220 326 0
-326 -325 0
-326 -220 0
326 219 327 0
-327 -326 0
-327 -219 0
327 218 328 0
-328 -327 0
-328 -218 0
328 217 329 0
-329 -328 0
-329 -217 0
329 216 330 0
-330 -329 0
-330 -216 0
330 215 331 0
-331 -330 0
-331 -215 0
331 214 332 0
-332 -331 0
-332 -214 0
332 213 333 0
-333 -332 0
-333 -213 0
-181 333 334 0
-334 181 0
-334 -333 0
125 -180 335 0
-335 -125 0
-335 180 0
335 334 336 0
-336 -335 0
-336 -334 0
-336 0
-339 338 -337 0
-339 -338 337 0
339 -338 -337 0
339 338 337 0
340 -371 402 0
-402 -340 0
-402 371 0
-340 371 403 0
-403 340 0
-403 -371 0
341 -372 404 0
-404 -341 0
-404 372 0
-341 372 405 0
-405 341 0
-405 -372 0
342 -373 406 0
-406 -342 0
-406 373 0
-342 373 407 0
-407 342 0
-407 -373 0
343 -374 408 0
-408 -343 0
-408 374 0
-343 374 409 0
-409 343 0
-409 -374 0
344 -375 410 0
-410 -344 0
-410 375 0
-344 375 411 0
-411 344 0
-411 -375 0
345 -376 412 0
-412 -345 0
-412 376 0
-345 376 413 0
-413 345 0
-413 -376 0
346 -377 414 0
-414 -346 0
-414 377 0
-346 377 415 0
-415 346 0
-415 -377 0
347 -378 416 0
-416 -347 0
-416 378 0
-347 378 417 0
-417 347 0
-417 -378 0
348 -379 418 0
-418 -348 0
-418 379 0
-348 379 419 0
-419 348 0
-419 -379 0
349 -380 420 0
-420 -349 0
-420 380 0
-349 380 421 0
-421 349 0
-421 -380 0
350 -381 422 0
-422 -350 0
-422 381 0
-350 381 423 0
-423 350 0
-423 -381 0
351 -382 424 0
-424 -351 0
-424 382 0
-351 382 425 0
-425 351 0
-425 -382 0
352 -383 426 0
-426 -352 0
-426 383 0
-352 383 427 0
-427 352 0
-427 -383 0
353 -384 428 0
-428 -353 0
-428 384 0
-353 384 429 0
-429 353 0
-429 -384 0
354 -385 430 0
-430 -354 0
-430 385 0
-354 385 431 0
-431 354 0
-431 -385 0
355 -386 432 0
-432 -355 0
-432 386 0
-355 386 433 0
-433 355 0
-433 -386 0
356 -387 434 0
-434 -356 0
-434 387 0
-356 387 435 0
-435 356 0
-435 -387 0
357 -388 436 0
-436 -357 0
-436 388 0
-357 388 437 0
-437 357 0
-437 -388 0
358 -389 438 0
-438 -358 0
-438 389 0
-358 389 439 0
-439 358 0
-439 -389 0
359 -390 440 0
-440 -359 0
-440 390 0
-359 390 441 0
-441 359 0
-441 -390 0
360 -391 442 0
-442 -360 0
-442 391 0
-360 391 443 0
-443 360 0
-443 -391 0
361 -392 444 0
-444 -361 0
-444 392 0
-361 392 445 0
-445 361 0
-445 -392 0
362 -393 446 0
-446 -362 0
-446 393 0
-362 393 447 0
-447 362 0
-447 -393 0
363 -394 448 0
-448 -363 0
-448 394 0
-363 394 449 0
-449 363 0
-449 -394 0
364 -395 450 0
-450 -364 0
-450 395 0
-364 395 451 0
-451 364 0
-451 -395 0
365 -396 452 0
-452 -365 0
-452 396 0
-365 396 453 0
-453 365 0
-453 -396 0
366 -397 454 0
-454 -366 0
-454 397 0
-366 397 455 0
-455 366 0
-455 -397 0
367 -398 456 0
-456 -367 0
-456 398 0
-367 398 457 0
-457 367 0
-457 -398 0
368 -399 458 0
-458 -368 0
-458 399 0
-368 399 459 0
-459 368 0
-459 -399 0
369 -400 460 0
-460 -369 0
-460 400 0
-369 400 461 0
-461 369 0
-461 -400 0
370 -401 462 0
-462 -370 0
-462 401 0
-462 461 463 0
-463 462 0
-463 -461 0
463 460 464 0
-464 -463 0
-464 -460 0
464 459 465 0
-465 -464 0
-465 -459 0
465 458 466 0
-466 -465 0
-466 -458 0
466 457 467 0
-467 -466 0
-467 -457 0
467 456 468 0
-468 -467 0
-468 -456 0
468 455 469 0
-469 -468 0
-469 -455 0
469 454 470 0
-470 -469 0
-470 -454 0
470 453 471 0
-471 -470 0
-471 -453 0
471 452 472 0
-472 -471 0
-472 -452 0
472 451 473 0
-473 -472 0
-473 -451 0
473 450 474 0
-474 -473 0
-474 -450 0
474 449 475 0
-475 -474 0
-475 -449 0
475 448 476 0
-476 -475 0
-476 -448 0
476 447 477 0
-477 -476 0
-477 -447 0
477 446 478 0
-478 -477 0
-478 -446 0
478 445 479 0
-479 -478 0
-479 -445 0
479 444 480 0
-480 -479 0
-480 -444 0
480 443 481 0
-481 -480 0
-481 -443 0
481 442 482 0
-482 -481 0
-482 -442 0
482 441 483 0
-483 -482 0
-483 -441 0
483 440 484 0
-484 -483 0
-484 -440 0
484 439 485 0
-485 -484 0
-485 -439 0
485 438 486 0
-486 -485 0
-486 -438 0
486 437 487 0
-487 -486 0
-487 -437 0
487 436 488 0
-488 -487 0
-488 -436 0
488 435 489 0
-489 -488 0
-489 -435 0
489 434 490 0
-490 -489 0
-490 -434 0
490 433 491 0
-491 -490 0
-491 -433 0
491 432 492 0
-492 -491 0
-492 -432 0
492 431 493 0
-493 -492 0
-493 -431 0
493 430 494 0
-494 -493 0
-494 -430 0
494 429 495 0
-495 -494 0
-495 -429 0
495 428 496 0
-496 -495 0
-496 -428 0
496 427 497 0
-497 -496 0
-497 -427 0
497 426 498 0
-498 -497 0
-498 -426 0
498 425 499 0
-499 -498 0
-499 -425 0
499 424 500 0
-500 -499 0
-500 -424 0
500 423 501 0
-501 -500 0
-501 -423 0
501 422 502 0
-502 -501 0
-502 -422 0
502 421 503 0
-503 -502 0
-503 -421 0
503 420 504 0
-504 -503 0
-504 -420 0
504 419 505 0
-505 -504 0
-505 -419 0
505 418 506 0
-506 -505 0
-506 -418 0
506 417 507 0
-507 -506 0
-507 -417 0
507 416 508 0
-508 -507 0
-508 -416 0
508 415 509 0
-509 -508 0
-509 -415 0
509 414 510 0
-510 -509 0
-510 -414 0
510 413 511 0
-511 -510 0
-511 -413 0
511 412 512 0
-512 -511 0
-512 -412 0
512 411 513 0
-513 -512 0
-513 -411 0
513 410 514 0
-514 -513 0
-514 -410 0
514 409 515 0
-515 -514 0
-515 -409 0
515 408 516 0
-516 -515 0
-516 -408 0
516 407 517 0
-517 -516 0
-517 -407 0
517 406 518 0
-518 -517 0
-518 -406 0
518 405 519 0
-519 -518 0
-519 -405 0
519 404 520 0
-520 -519 0
-520 -404 0
520 403 521 0
-521 -520 0
-521 -403 0
521 402 522 0
-522 -521 0
-522 -402 0
-339 522 523 0
-523 339 0
-523 -522 0
337 -338 524 0
-524 -337 0
-524 338 0
524 523 525 0
-525 -524 0
-525 -523 0
-525 0
-555 -554 558 0
-558 555 0
-558 554 0
553 558 559 0
-559 -553 0
-559 -558 0
-552 559 560 0
-560 552 0
-560 -559 0
551 560 561 0
-561 -551 0
-561 -560 0
550 -561 562 0
-562 -550 0
-562 561 0
-549 562 563 0
-563 549 0
-563 -562 0
548 563 564 0
-564 -548 0
-564 -563 0
547 -564 565 0
-565 -547 0
-565 564 0
546 -565 566 0
-566 -546 0
-566 565 0
545 -566 567 0
-567 -545 0
-567 566 0
544 -567 568 0
-568 -544 0
-568 567 0
543 -568 569 0
-569 -543 0
-569 568 0
542 -569 570 0
-570 -542 0
-570 569 0
541 -570 571 0
-571 -541 0
-571 570 0
540 -571 572 0
-572 -540 0
-572 571 0
539 -572 573 0
-573 -539 0
-573 572 0
538 -573 574 0
-574 -538 0
-574 573 0
537 -574 575 0
-575 -537 0
-575 574 0
536 -575 576 0
-576 -536 0
-576 575 0
535 -576 577 0
-577 -535 0
-577 576 0
534 -577 578 0
-578 -534 0
-578 577 0
533 -578 579 0
-579 -533 0
-579 578 0
532 -579 580 0
-580 -532 0
-580 579 0
531 -580 581 0
-581 -531 0
-581 580 0
530 -581 582 0
-582 -530 0
-582 581 0
529 -582 583 0
-583 -529 0
-583 582 0
528 -583 584 0
-584 -528 0
-584 583 0
527 -584 585 0
-585 -527 0
-585 584 0
526 585 586 0
-586 -526 0
-586 -585 0
-586 0
